#Data

param a :
  1 2 3 4 5 6 :=
1 3.16 3.16 1.84 2.02 2.88 2.98
2 3.3 3.3 2.88 2.96 1.84 2.04
3 3.36 3.24 2.96 2.04 2.02 1.82
4 2.18 1.84 3.16 3.16 3.36 3.3;

param c1 := 1 5000 2 2000 3 2000 4 2000 ;

param c2 := 1 1000 2 1000 3 1000 4 1000;

param d1 := 1 500 2 700 3 900 4 800 5 1000 6 600;

param d2 := 1 50 2 90 3 120 4 65 5 120 6 70;

param f1 := 1 5000 2 2200 3 2200 4 2200;

param f2 := 1 1500 2 1500 3 1500 4 1500;
